SCIP version 5.0.0 [precision: 8 byte] [memory: block] [mode: optimized] [LP solver: NONE] [GitHash: 3bbd232]
Copyright (C) 2002-2017 Konrad-Zuse-Zentrum fuer Informationstechnik Berlin (ZIB)

External codes: 
  Readline EditLine w  GNU library for command line editing (gnu.org/s/readline)
  CppAD 20160000.1     Algorithmic Differentiation of C++ algorithms developed by B. Bell (www.coin-or.org/CppAD)
  ZLIB 1.2.5           General purpose compression library by J. Gailly and M. Adler (zlib.net)
  GMP 6.1.2            GNU Multiple Precision Arithmetic Library developed by T. Granlund (gmplib.org)

user parameter file <scip.set> not found - using default parameters

read problem <../../Split_data/output/spectf/3/0_sample_spectf.logreg>
============

File name	:	../../Split_data/output/spectf/3/0_sample_spectf.logreg
Problem name 	:	0_sample_spectf
Number of data	:	214
Number of var	:	44
The given data has linear independence

[dim=1] time: 0.008333
[dim=2] time: 0.016659
[dim=3] time: 0.024948
[dim=4] time: 0.031825
[dim=5] time: 0.038568
[dim=6] time: 0.045086
[dim=7] time: 0.051213
[dim=8] time: 0.057144
[dim=9] time: 0.063079
[dim=10] time: 0.068869
[dim=11] time: 0.074642
[dim=12] time: 0.080031
[dim=13] time: 0.085241
[dim=14] time: 0.090946
[dim=15] Time of forward = 0.096167sec.
AIC: 131.338
k: 14

[dim=44] time: 0.033351
[dim=43] time: 0.055376
[dim=42] time: 0.074152
[dim=41] time: 0.08745
[dim=40] time: 0.098745
[dim=39] time: 0.11405
[dim=38] time: 0.1274
[dim=37] time: 0.139332
[dim=36] time: 0.153231
[dim=35] time: 0.16773
[dim=34] time: 0.178205
[dim=33] time: 0.198685
[dim=32] time: 0.210768
[dim=31] time: 0.222523
[dim=30] time: 0.233375
[dim=29] time: 0.243342
[dim=28] time: 0.252627
[dim=27] time: 0.260668
[dim=26] time: 0.269168
[dim=25] time: 0.277937
[dim=24] time: 0.285171
[dim=23] time: 0.293826
[dim=22] time: 0.301711
[dim=21] time: 0.307072
[dim=20] Time of backward = 0.312476sec.
AIC: 137.73
k: 21
